WARNING: for repeatability, setting FPU to use double precision
============================[ Problem Statistics ]=============================
|                                                                             |
|  Number of variables:            50                                         |
|  Number of clauses:             218                                         |
|  Parse time:                   0.00 s                                       |
|                                                                             |
============================[ Search Statistics ]==============================
| Conflicts |          ORIGINAL         |          LEARNT          | Progress |
|           |    Vars  Clauses Literals |    Limit  Clauses Lit/Cl |          |
===============================================================================
===============================================================================
restarts              : 1
conflicts             : 70             (333333 /sec)
decisions             : 82             (0.00 % random) (390476 /sec)
propagations          : 960            (4571429 /sec)
conflict literals     : 241            (18.86 % deleted)
Memory used           : 20.00 MB
CPU time              : 0.00021 s

UNSATISFIABLE
